NumberOfAtoms        2

NumberOfSpecies      2
%block ChemicalSpeciesLabel
    1   8 O    
    2  12 Mg   
%endblock ChemicalSpeciesLabel

LatticeConstant 1.0 Ang
%block LatticeParameters
    4.0000    5.0000    6.0000   60.0000   75.0000   90.0000
%endblock LatticeParameters

AtomicCoordinatesFormat Fractional
%block AtomicCoordinatesAndAtomicSpecies
    0.000000000    0.000000000    0.000000000     1
    0.500000000    0.500000000    0.500000000     2
%endblock AtomicCoordinatesAndAtomicSpecies

