#opti conp debug derv2 
single phonon conp debug derv2
title
end

cell
4 5 6 90 60 60

frac
O  core 0.28 0.3 0.12 0
Mg core 0.51 0.26 0.33 0
#cart 
#O core 2.5 2.5 2.5 0
#Mg core 0 0 0 0
buckingham
Mg core    O    core   946.627 0.31813  0.00000 0.0 10.0

