single verbose full nosym
title
Example of defect impurity calc : Li substituted into MgO
end
vectors
4 0 0
0 4 4
0 0 4
frac
O  core 0.5 0.5 0.5  -2.0 
Mg core 0.0 0.0 0.0  2.00000
buck
Mg core O shel 1280.0 0.3 0.0 0.0 8.0
buck
Li core O shel 816.3 0.26086 0.0 0.0 8.0
buck
O shel O shel 1280.0 0.3 27.88 0.0 10.0
spri
O 74.92

