gradient 
title
end

#cell
#4 4 4 90 90 90

#frac
#O  core 0.5 0.5 0.5  0
#Mg core 0.0 0.0 0.0  0
cart 
O core 2 2 2 0 1 1 1 1 1
Mg core 0 0 0 0 1 1 1 1 1
buck
Mg core O core 1280.0 0.3 0.0 0.0 8.0

