#opti conp debug derv2 
single phonon conp debug  derv2 verbose pot norecip
title
end

cell
5 5 5 90 90 90

frac
#O  core 0.37 0.28 0.79 0
#O core 0.5 0.42 0.10 0
#Mg core 0.80 0.88 0.45 0
#O core 0.10 0.70 0.30 0
O core 0 0 0 0
Mg core 0.5 0.5 0.5 0
#cart 
#O core 2.5 2.5 2.5 0
#Mg core 0 0 0 0
buckingham
Mg core    O    core   200.627 1.31813  0.00000 0.0 10.0

#lenn 12 6
#Mg core O core 1000000 0 10


output drv hi.drv
output frc hi.frc
output fdf hi.fdf
