#opti conp debug derv2 
single phonon conp debug  derv2 verbose pot
title
end

cell
4 5 6 60 75 90

frac
#O  core 0.37 0.28 0.79 0
#O core 0.5 0.42 0.10 0
#Mg core 0.80 0.88 0.45 0
#O core 0.10 0.70 0.30 0
O core 0 0 0 0
Mg core 0.5 0.5 0.5 0
#cart 
#O core 2.5 2.5 2.5 0
#Mg core 0 0 0 0
buckingham
Mg core    O    core   946.627 0.31813  0.00000 0.0 10.0

output drv hi.drv
output frc hi.frc
output fdf hi.fdf
