gradient conp nosymmetry
title
end

cell
4 5 6 90 60 90

frac
O  core 0.5 0.5 0.5 0.86902
O  shel 0.49 0.49 0.49 -2.86902
Mg core 0.0 0.0 0.0 2.0
#cart 
#O core 2 2 2 0 1 1 1 1 1
#Mg core 0 0 0.8 0 1 1 1 1 1
buckingham
Mg core    O    shel   946.627 0.31813  0.00000 0.0 10.0

spring 
O  74.92
