#opti conp debug derv2 
single numerical phonon conp debug  derv2 verbose norecip
title
end

cell
5 5 5 90 90 90

frac
O  core 0.37 0.28 0.79 -2.0
O core 0.5 0.42 0.10 -2.0
Mg core 0.80 0.88 0.45 4

#cart 
#O core 2.5 2.5 2.5 0
#Mg core 0 0 0 0
#buckingham
#Mg core    O    core   946.627 0.31813  0.00000 0.0 10.0

